
;this file is automatically generated: Mon Oct 04 22:33:14 IST 2021

;declarations generated

(declare-fun type_f2cc20f5_280a_4fb2_884c_1cac90f76b50_Class1 ( Int) Bool)
(declare-fun type_f2cc20f5_280a_4fb2_884c_1cac90f76b50_Class0 ( Int) Bool)
(declare-fun type_f2cc20f5_280a_4fb2_884c_1cac90f76b50_Class5 ( Int) Bool)
(declare-fun type_f2cc20f5_280a_4fb2_884c_1cac90f76b50_Class4 ( Int) Bool)
(declare-fun type_f2cc20f5_280a_4fb2_884c_1cac90f76b50_Class3 ( Int) Bool)
(declare-fun type_f2cc20f5_280a_4fb2_884c_1cac90f76b50_Class2 ( Int) Bool)
(declare-fun oclExcludes ( Int Int) Bool)
(declare-fun type_f2cc20f5_280a_4fb2_884c_1cac90f76b50_Class53 ( Int) Bool)
(declare-fun type_f2cc20f5_280a_4fb2_884c_1cac90f76b50_Class54 ( Int) Bool)
(declare-fun type_f2cc20f5_280a_4fb2_884c_1cac90f76b50_Class55 ( Int) Bool)
(declare-fun type_f2cc20f5_280a_4fb2_884c_1cac90f76b50_Class50 ( Int) Bool)
(declare-fun type_f2cc20f5_280a_4fb2_884c_1cac90f76b50_Class51 ( Int) Bool)
(declare-fun type_f2cc20f5_280a_4fb2_884c_1cac90f76b50_Class52 ( Int) Bool)
(declare-fun Cardinality ( Int) Int)
(declare-fun class51_Class51IntAttr1 ( Int) Int)
(declare-fun oclSelect ( Int Bool) Int)
(declare-fun obj_e6621be0_1f25_4311_9b56_a907057858df ( Int) Int)
(declare-fun type_f2cc20f5_280a_4fb2_884c_1cac90f76b50_Class17 ( Int) Bool)
(declare-fun type_f2cc20f5_280a_4fb2_884c_1cac90f76b50_Class18 ( Int) Bool)
(declare-fun type_f2cc20f5_280a_4fb2_884c_1cac90f76b50_Class19 ( Int) Bool)
(declare-fun type_f2cc20f5_280a_4fb2_884c_1cac90f76b50_Class13 ( Int) Bool)
(declare-fun type_f2cc20f5_280a_4fb2_884c_1cac90f76b50_Class14 ( Int) Bool)
(declare-fun type_f2cc20f5_280a_4fb2_884c_1cac90f76b50_Class15 ( Int) Bool)
(declare-fun type_f2cc20f5_280a_4fb2_884c_1cac90f76b50_Class16 ( Int) Bool)
(declare-fun type_f2cc20f5_280a_4fb2_884c_1cac90f76b50_Class10 ( Int) Bool)
(declare-fun type_f2cc20f5_280a_4fb2_884c_1cac90f76b50_Class11 ( Int) Bool)
(declare-fun type_f2cc20f5_280a_4fb2_884c_1cac90f76b50_Class12 ( Int) Bool)
(declare-fun Enum0 ( Int) Int)
(declare-fun Enum1 ( Int) Int)
(declare-fun type_f2cc20f5_280a_4fb2_884c_1cac90f76b50_Class28 ( Int) Bool)
(declare-fun Enum2 ( Int) Int)
(declare-fun type_f2cc20f5_280a_4fb2_884c_1cac90f76b50_Class29 ( Int) Bool)
(declare-fun type_f2cc20f5_280a_4fb2_884c_1cac90f76b50_Class24 ( Int) Bool)
(declare-fun type_f2cc20f5_280a_4fb2_884c_1cac90f76b50_Class25 ( Int) Bool)
(declare-fun type_f2cc20f5_280a_4fb2_884c_1cac90f76b50_Class26 ( Int) Bool)
(declare-fun type_f2cc20f5_280a_4fb2_884c_1cac90f76b50_Class27 ( Int) Bool)
(declare-fun type_f2cc20f5_280a_4fb2_884c_1cac90f76b50_Class20 ( Int) Bool)
(declare-fun type_f2cc20f5_280a_4fb2_884c_1cac90f76b50_Class21 ( Int) Bool)
(declare-fun type_f2cc20f5_280a_4fb2_884c_1cac90f76b50_Class22 ( Int) Bool)
(declare-fun type_f2cc20f5_280a_4fb2_884c_1cac90f76b50_Class23 ( Int) Bool)
(declare-fun type_f2cc20f5_280a_4fb2_884c_1cac90f76b50_Class39 ( Int) Bool)
(declare-fun type_f2cc20f5_280a_4fb2_884c_1cac90f76b50_Class35 ( Int) Bool)
(declare-fun type_f2cc20f5_280a_4fb2_884c_1cac90f76b50_Class36 ( Int) Bool)
(declare-fun container_ ( Int) Int)
(declare-fun type_f2cc20f5_280a_4fb2_884c_1cac90f76b50_Class37 ( Int) Bool)
(declare-fun type_f2cc20f5_280a_4fb2_884c_1cac90f76b50_Class38 ( Int) Bool)
(declare-fun type_f2cc20f5_280a_4fb2_884c_1cac90f76b50_Class31 ( Int) Bool)
(declare-fun type_f2cc20f5_280a_4fb2_884c_1cac90f76b50_Class32 ( Int) Bool)
(declare-fun type_f2cc20f5_280a_4fb2_884c_1cac90f76b50_Class33 ( Int) Bool)
(declare-fun type_f2cc20f5_280a_4fb2_884c_1cac90f76b50_Class34 ( Int) Bool)
(declare-fun type_f2cc20f5_280a_4fb2_884c_1cac90f76b50_Class30 ( Int) Bool)
(declare-fun type_f2cc20f5_280a_4fb2_884c_1cac90f76b50_Class46 ( Int) Bool)
(declare-fun type_f2cc20f5_280a_4fb2_884c_1cac90f76b50_Class47 ( Int) Bool)
(declare-fun type_f2cc20f5_280a_4fb2_884c_1cac90f76b50_Class48 ( Int) Bool)
(declare-fun type_f2cc20f5_280a_4fb2_884c_1cac90f76b50_Class49 ( Int) Bool)
(declare-fun type_f2cc20f5_280a_4fb2_884c_1cac90f76b50_Class42 ( Int) Bool)
(declare-fun type_f2cc20f5_280a_4fb2_884c_1cac90f76b50_Class43 ( Int) Bool)
(declare-fun type_f2cc20f5_280a_4fb2_884c_1cac90f76b50_Class44 ( Int) Bool)
(declare-fun type_f2cc20f5_280a_4fb2_884c_1cac90f76b50_Class45 ( Int) Bool)
(declare-fun type_f2cc20f5_280a_4fb2_884c_1cac90f76b50_Class40 ( Int) Bool)
(declare-fun type_f2cc20f5_280a_4fb2_884c_1cac90f76b50_Class41 ( Int) Bool)
(declare-fun oclIncludes ( Int Int) Bool)
(declare-fun type_f2cc20f5_280a_4fb2_884c_1cac90f76b50_Class9 ( Int) Bool)
(declare-fun type_f2cc20f5_280a_4fb2_884c_1cac90f76b50_Class8 ( Int) Bool)
(declare-fun type_f2cc20f5_280a_4fb2_884c_1cac90f76b50_Class7 ( Int) Bool)
(declare-fun type_f2cc20f5_280a_4fb2_884c_1cac90f76b50_Class6 ( Int) Bool)
(declare-fun ObjAt ( Int Int) Int)

;formula(s) generated
(assert (! (forall ((v Int)) (=> (and (and (and (and (and (and ( type_f2cc20f5_280a_4fb2_884c_1cac90f76b50_Class51 v )  ( type_f2cc20f5_280a_4fb2_884c_1cac90f76b50_Class45 v ) ) ( type_f2cc20f5_280a_4fb2_884c_1cac90f76b50_Class12 v ) ) ( type_f2cc20f5_280a_4fb2_884c_1cac90f76b50_Class33 v ) ) ( type_f2cc20f5_280a_4fb2_884c_1cac90f76b50_Class22 v ) ) ( type_f2cc20f5_280a_4fb2_884c_1cac90f76b50_Class16 v ) ) ( type_f2cc20f5_280a_4fb2_884c_1cac90f76b50_Class39 v ) ) (not (= ( class51_Class51IntAttr1 ( obj_e6621be0_1f25_4311_9b56_a907057858df v )  )  1) ))):named l0))
(assert (! (exists ((o Int)) ( type_f2cc20f5_280a_4fb2_884c_1cac90f76b50_Class0 ( obj_e6621be0_1f25_4311_9b56_a907057858df o )  ) ):named c0))
(assert (! (exists ((o Int)) (and (and (and (and (and ( type_f2cc20f5_280a_4fb2_884c_1cac90f76b50_Class1 ( obj_e6621be0_1f25_4311_9b56_a907057858df o )  )  ( type_f2cc20f5_280a_4fb2_884c_1cac90f76b50_Class45 ( obj_e6621be0_1f25_4311_9b56_a907057858df o )  ) ) ( type_f2cc20f5_280a_4fb2_884c_1cac90f76b50_Class12 ( obj_e6621be0_1f25_4311_9b56_a907057858df o )  ) ) ( type_f2cc20f5_280a_4fb2_884c_1cac90f76b50_Class33 ( obj_e6621be0_1f25_4311_9b56_a907057858df o )  ) ) ( type_f2cc20f5_280a_4fb2_884c_1cac90f76b50_Class22 ( obj_e6621be0_1f25_4311_9b56_a907057858df o )  ) ) ( type_f2cc20f5_280a_4fb2_884c_1cac90f76b50_Class39 ( obj_e6621be0_1f25_4311_9b56_a907057858df o )  ) )):named c1))
(assert (! (exists ((o Int)) (and (and (and (and (and (and (and (and (and ( type_f2cc20f5_280a_4fb2_884c_1cac90f76b50_Class10 ( obj_e6621be0_1f25_4311_9b56_a907057858df o )  )  ( type_f2cc20f5_280a_4fb2_884c_1cac90f76b50_Class45 ( obj_e6621be0_1f25_4311_9b56_a907057858df o )  ) ) ( type_f2cc20f5_280a_4fb2_884c_1cac90f76b50_Class12 ( obj_e6621be0_1f25_4311_9b56_a907057858df o )  ) ) ( type_f2cc20f5_280a_4fb2_884c_1cac90f76b50_Class55 ( obj_e6621be0_1f25_4311_9b56_a907057858df o )  ) ) ( type_f2cc20f5_280a_4fb2_884c_1cac90f76b50_Class33 ( obj_e6621be0_1f25_4311_9b56_a907057858df o )  ) ) ( type_f2cc20f5_280a_4fb2_884c_1cac90f76b50_Class22 ( obj_e6621be0_1f25_4311_9b56_a907057858df o )  ) ) ( type_f2cc20f5_280a_4fb2_884c_1cac90f76b50_Class29 ( obj_e6621be0_1f25_4311_9b56_a907057858df o )  ) ) ( type_f2cc20f5_280a_4fb2_884c_1cac90f76b50_Class39 ( obj_e6621be0_1f25_4311_9b56_a907057858df o )  ) ) ( type_f2cc20f5_280a_4fb2_884c_1cac90f76b50_Class50 ( obj_e6621be0_1f25_4311_9b56_a907057858df o )  ) ) ( type_f2cc20f5_280a_4fb2_884c_1cac90f76b50_Class41 ( obj_e6621be0_1f25_4311_9b56_a907057858df o )  ) )):named c2))
(assert (! (exists ((o Int)) ( type_f2cc20f5_280a_4fb2_884c_1cac90f76b50_Class11 ( obj_e6621be0_1f25_4311_9b56_a907057858df o )  ) ):named c3))
(assert (! (exists ((o Int)) (and (and (and ( type_f2cc20f5_280a_4fb2_884c_1cac90f76b50_Class12 ( obj_e6621be0_1f25_4311_9b56_a907057858df o )  )  ( type_f2cc20f5_280a_4fb2_884c_1cac90f76b50_Class33 ( obj_e6621be0_1f25_4311_9b56_a907057858df o )  ) ) ( type_f2cc20f5_280a_4fb2_884c_1cac90f76b50_Class22 ( obj_e6621be0_1f25_4311_9b56_a907057858df o )  ) ) ( type_f2cc20f5_280a_4fb2_884c_1cac90f76b50_Class39 ( obj_e6621be0_1f25_4311_9b56_a907057858df o )  ) )):named c4))
(assert (! (exists ((o Int)) (and (and (and (and (and (and (and (and (and ( type_f2cc20f5_280a_4fb2_884c_1cac90f76b50_Class13 ( obj_e6621be0_1f25_4311_9b56_a907057858df o )  )  ( type_f2cc20f5_280a_4fb2_884c_1cac90f76b50_Class45 ( obj_e6621be0_1f25_4311_9b56_a907057858df o )  ) ) ( type_f2cc20f5_280a_4fb2_884c_1cac90f76b50_Class12 ( obj_e6621be0_1f25_4311_9b56_a907057858df o )  ) ) ( type_f2cc20f5_280a_4fb2_884c_1cac90f76b50_Class55 ( obj_e6621be0_1f25_4311_9b56_a907057858df o )  ) ) ( type_f2cc20f5_280a_4fb2_884c_1cac90f76b50_Class33 ( obj_e6621be0_1f25_4311_9b56_a907057858df o )  ) ) ( type_f2cc20f5_280a_4fb2_884c_1cac90f76b50_Class22 ( obj_e6621be0_1f25_4311_9b56_a907057858df o )  ) ) ( type_f2cc20f5_280a_4fb2_884c_1cac90f76b50_Class29 ( obj_e6621be0_1f25_4311_9b56_a907057858df o )  ) ) ( type_f2cc20f5_280a_4fb2_884c_1cac90f76b50_Class39 ( obj_e6621be0_1f25_4311_9b56_a907057858df o )  ) ) ( type_f2cc20f5_280a_4fb2_884c_1cac90f76b50_Class50 ( obj_e6621be0_1f25_4311_9b56_a907057858df o )  ) ) ( type_f2cc20f5_280a_4fb2_884c_1cac90f76b50_Class41 ( obj_e6621be0_1f25_4311_9b56_a907057858df o )  ) )):named c5))
(assert (! (exists ((o Int)) (and (and (and (and (and (and (and (and (and ( type_f2cc20f5_280a_4fb2_884c_1cac90f76b50_Class14 ( obj_e6621be0_1f25_4311_9b56_a907057858df o )  )  ( type_f2cc20f5_280a_4fb2_884c_1cac90f76b50_Class45 ( obj_e6621be0_1f25_4311_9b56_a907057858df o )  ) ) ( type_f2cc20f5_280a_4fb2_884c_1cac90f76b50_Class12 ( obj_e6621be0_1f25_4311_9b56_a907057858df o )  ) ) ( type_f2cc20f5_280a_4fb2_884c_1cac90f76b50_Class55 ( obj_e6621be0_1f25_4311_9b56_a907057858df o )  ) ) ( type_f2cc20f5_280a_4fb2_884c_1cac90f76b50_Class33 ( obj_e6621be0_1f25_4311_9b56_a907057858df o )  ) ) ( type_f2cc20f5_280a_4fb2_884c_1cac90f76b50_Class22 ( obj_e6621be0_1f25_4311_9b56_a907057858df o )  ) ) ( type_f2cc20f5_280a_4fb2_884c_1cac90f76b50_Class29 ( obj_e6621be0_1f25_4311_9b56_a907057858df o )  ) ) ( type_f2cc20f5_280a_4fb2_884c_1cac90f76b50_Class39 ( obj_e6621be0_1f25_4311_9b56_a907057858df o )  ) ) ( type_f2cc20f5_280a_4fb2_884c_1cac90f76b50_Class50 ( obj_e6621be0_1f25_4311_9b56_a907057858df o )  ) ) ( type_f2cc20f5_280a_4fb2_884c_1cac90f76b50_Class41 ( obj_e6621be0_1f25_4311_9b56_a907057858df o )  ) )):named c6))
(assert (! (exists ((o Int)) ( type_f2cc20f5_280a_4fb2_884c_1cac90f76b50_Class15 ( obj_e6621be0_1f25_4311_9b56_a907057858df o )  ) ):named c7))
(assert (! (exists ((o Int)) (and (and (and (and (and ( type_f2cc20f5_280a_4fb2_884c_1cac90f76b50_Class16 ( obj_e6621be0_1f25_4311_9b56_a907057858df o )  )  ( type_f2cc20f5_280a_4fb2_884c_1cac90f76b50_Class45 ( obj_e6621be0_1f25_4311_9b56_a907057858df o )  ) ) ( type_f2cc20f5_280a_4fb2_884c_1cac90f76b50_Class12 ( obj_e6621be0_1f25_4311_9b56_a907057858df o )  ) ) ( type_f2cc20f5_280a_4fb2_884c_1cac90f76b50_Class33 ( obj_e6621be0_1f25_4311_9b56_a907057858df o )  ) ) ( type_f2cc20f5_280a_4fb2_884c_1cac90f76b50_Class22 ( obj_e6621be0_1f25_4311_9b56_a907057858df o )  ) ) ( type_f2cc20f5_280a_4fb2_884c_1cac90f76b50_Class39 ( obj_e6621be0_1f25_4311_9b56_a907057858df o )  ) )):named c8))
(assert (! (exists ((o Int)) ( type_f2cc20f5_280a_4fb2_884c_1cac90f76b50_Class17 ( obj_e6621be0_1f25_4311_9b56_a907057858df o )  ) ):named c9))
(assert (! (exists ((o Int)) (and (and (and ( type_f2cc20f5_280a_4fb2_884c_1cac90f76b50_Class18 ( obj_e6621be0_1f25_4311_9b56_a907057858df o )  )  ( type_f2cc20f5_280a_4fb2_884c_1cac90f76b50_Class25 ( obj_e6621be0_1f25_4311_9b56_a907057858df o )  ) ) ( type_f2cc20f5_280a_4fb2_884c_1cac90f76b50_Class24 ( obj_e6621be0_1f25_4311_9b56_a907057858df o )  ) ) ( type_f2cc20f5_280a_4fb2_884c_1cac90f76b50_Class39 ( obj_e6621be0_1f25_4311_9b56_a907057858df o )  ) )):named c10))
(assert (! (exists ((o Int)) (and (and (and (and (and (and (and (and (and ( type_f2cc20f5_280a_4fb2_884c_1cac90f76b50_Class19 ( obj_e6621be0_1f25_4311_9b56_a907057858df o )  )  ( type_f2cc20f5_280a_4fb2_884c_1cac90f76b50_Class45 ( obj_e6621be0_1f25_4311_9b56_a907057858df o )  ) ) ( type_f2cc20f5_280a_4fb2_884c_1cac90f76b50_Class12 ( obj_e6621be0_1f25_4311_9b56_a907057858df o )  ) ) ( type_f2cc20f5_280a_4fb2_884c_1cac90f76b50_Class55 ( obj_e6621be0_1f25_4311_9b56_a907057858df o )  ) ) ( type_f2cc20f5_280a_4fb2_884c_1cac90f76b50_Class33 ( obj_e6621be0_1f25_4311_9b56_a907057858df o )  ) ) ( type_f2cc20f5_280a_4fb2_884c_1cac90f76b50_Class22 ( obj_e6621be0_1f25_4311_9b56_a907057858df o )  ) ) ( type_f2cc20f5_280a_4fb2_884c_1cac90f76b50_Class29 ( obj_e6621be0_1f25_4311_9b56_a907057858df o )  ) ) ( type_f2cc20f5_280a_4fb2_884c_1cac90f76b50_Class39 ( obj_e6621be0_1f25_4311_9b56_a907057858df o )  ) ) ( type_f2cc20f5_280a_4fb2_884c_1cac90f76b50_Class50 ( obj_e6621be0_1f25_4311_9b56_a907057858df o )  ) ) ( type_f2cc20f5_280a_4fb2_884c_1cac90f76b50_Class41 ( obj_e6621be0_1f25_4311_9b56_a907057858df o )  ) )):named c11))
(assert (! (exists ((o Int)) ( type_f2cc20f5_280a_4fb2_884c_1cac90f76b50_Class2 ( obj_e6621be0_1f25_4311_9b56_a907057858df o )  ) ):named c12))
(assert (! (exists ((o Int)) ( type_f2cc20f5_280a_4fb2_884c_1cac90f76b50_Class20 ( obj_e6621be0_1f25_4311_9b56_a907057858df o )  ) ):named c13))
(assert (! (exists ((o Int)) (and (and (and (and (and (and (and (and (and ( type_f2cc20f5_280a_4fb2_884c_1cac90f76b50_Class21 ( obj_e6621be0_1f25_4311_9b56_a907057858df o )  )  ( type_f2cc20f5_280a_4fb2_884c_1cac90f76b50_Class45 ( obj_e6621be0_1f25_4311_9b56_a907057858df o )  ) ) ( type_f2cc20f5_280a_4fb2_884c_1cac90f76b50_Class12 ( obj_e6621be0_1f25_4311_9b56_a907057858df o )  ) ) ( type_f2cc20f5_280a_4fb2_884c_1cac90f76b50_Class33 ( obj_e6621be0_1f25_4311_9b56_a907057858df o )  ) ) ( type_f2cc20f5_280a_4fb2_884c_1cac90f76b50_Class22 ( obj_e6621be0_1f25_4311_9b56_a907057858df o )  ) ) ( type_f2cc20f5_280a_4fb2_884c_1cac90f76b50_Class16 ( obj_e6621be0_1f25_4311_9b56_a907057858df o )  ) ) ( type_f2cc20f5_280a_4fb2_884c_1cac90f76b50_Class29 ( obj_e6621be0_1f25_4311_9b56_a907057858df o )  ) ) ( type_f2cc20f5_280a_4fb2_884c_1cac90f76b50_Class39 ( obj_e6621be0_1f25_4311_9b56_a907057858df o )  ) ) ( type_f2cc20f5_280a_4fb2_884c_1cac90f76b50_Class41 ( obj_e6621be0_1f25_4311_9b56_a907057858df o )  ) ) ( type_f2cc20f5_280a_4fb2_884c_1cac90f76b50_Class51 ( obj_e6621be0_1f25_4311_9b56_a907057858df o )  ) )):named c14))
(assert (! (exists ((o Int)) (and ( type_f2cc20f5_280a_4fb2_884c_1cac90f76b50_Class22 ( obj_e6621be0_1f25_4311_9b56_a907057858df o )  )  ( type_f2cc20f5_280a_4fb2_884c_1cac90f76b50_Class39 ( obj_e6621be0_1f25_4311_9b56_a907057858df o )  ) )):named c15))
(assert (! (exists ((o Int)) (and (and (and (and ( type_f2cc20f5_280a_4fb2_884c_1cac90f76b50_Class23 ( obj_e6621be0_1f25_4311_9b56_a907057858df o )  )  ( type_f2cc20f5_280a_4fb2_884c_1cac90f76b50_Class25 ( obj_e6621be0_1f25_4311_9b56_a907057858df o )  ) ) ( type_f2cc20f5_280a_4fb2_884c_1cac90f76b50_Class24 ( obj_e6621be0_1f25_4311_9b56_a907057858df o )  ) ) ( type_f2cc20f5_280a_4fb2_884c_1cac90f76b50_Class39 ( obj_e6621be0_1f25_4311_9b56_a907057858df o )  ) ) ( type_f2cc20f5_280a_4fb2_884c_1cac90f76b50_Class5 ( obj_e6621be0_1f25_4311_9b56_a907057858df o )  ) )):named c16))
(assert (! (exists ((o Int)) (and (and ( type_f2cc20f5_280a_4fb2_884c_1cac90f76b50_Class24 ( obj_e6621be0_1f25_4311_9b56_a907057858df o )  )  ( type_f2cc20f5_280a_4fb2_884c_1cac90f76b50_Class25 ( obj_e6621be0_1f25_4311_9b56_a907057858df o )  ) ) ( type_f2cc20f5_280a_4fb2_884c_1cac90f76b50_Class39 ( obj_e6621be0_1f25_4311_9b56_a907057858df o )  ) )):named c17))
(assert (! (exists ((o Int)) (and ( type_f2cc20f5_280a_4fb2_884c_1cac90f76b50_Class25 ( obj_e6621be0_1f25_4311_9b56_a907057858df o )  )  ( type_f2cc20f5_280a_4fb2_884c_1cac90f76b50_Class39 ( obj_e6621be0_1f25_4311_9b56_a907057858df o )  ) )):named c18))
(assert (! (exists ((o Int)) ( type_f2cc20f5_280a_4fb2_884c_1cac90f76b50_Class26 ( obj_e6621be0_1f25_4311_9b56_a907057858df o )  ) ):named c19))
(assert (! (exists ((o Int)) ( type_f2cc20f5_280a_4fb2_884c_1cac90f76b50_Class27 ( obj_e6621be0_1f25_4311_9b56_a907057858df o )  ) ):named c20))
(assert (! (exists ((o Int)) (and (and (and (and (and (and (and ( type_f2cc20f5_280a_4fb2_884c_1cac90f76b50_Class28 ( obj_e6621be0_1f25_4311_9b56_a907057858df o )  )  ( type_f2cc20f5_280a_4fb2_884c_1cac90f76b50_Class45 ( obj_e6621be0_1f25_4311_9b56_a907057858df o )  ) ) ( type_f2cc20f5_280a_4fb2_884c_1cac90f76b50_Class12 ( obj_e6621be0_1f25_4311_9b56_a907057858df o )  ) ) ( type_f2cc20f5_280a_4fb2_884c_1cac90f76b50_Class33 ( obj_e6621be0_1f25_4311_9b56_a907057858df o )  ) ) ( type_f2cc20f5_280a_4fb2_884c_1cac90f76b50_Class22 ( obj_e6621be0_1f25_4311_9b56_a907057858df o )  ) ) ( type_f2cc20f5_280a_4fb2_884c_1cac90f76b50_Class29 ( obj_e6621be0_1f25_4311_9b56_a907057858df o )  ) ) ( type_f2cc20f5_280a_4fb2_884c_1cac90f76b50_Class39 ( obj_e6621be0_1f25_4311_9b56_a907057858df o )  ) ) ( type_f2cc20f5_280a_4fb2_884c_1cac90f76b50_Class41 ( obj_e6621be0_1f25_4311_9b56_a907057858df o )  ) )):named c21))
(assert (! (exists ((o Int)) (and (and (and (and (and (and ( type_f2cc20f5_280a_4fb2_884c_1cac90f76b50_Class29 ( obj_e6621be0_1f25_4311_9b56_a907057858df o )  )  ( type_f2cc20f5_280a_4fb2_884c_1cac90f76b50_Class45 ( obj_e6621be0_1f25_4311_9b56_a907057858df o )  ) ) ( type_f2cc20f5_280a_4fb2_884c_1cac90f76b50_Class12 ( obj_e6621be0_1f25_4311_9b56_a907057858df o )  ) ) ( type_f2cc20f5_280a_4fb2_884c_1cac90f76b50_Class33 ( obj_e6621be0_1f25_4311_9b56_a907057858df o )  ) ) ( type_f2cc20f5_280a_4fb2_884c_1cac90f76b50_Class22 ( obj_e6621be0_1f25_4311_9b56_a907057858df o )  ) ) ( type_f2cc20f5_280a_4fb2_884c_1cac90f76b50_Class39 ( obj_e6621be0_1f25_4311_9b56_a907057858df o )  ) ) ( type_f2cc20f5_280a_4fb2_884c_1cac90f76b50_Class41 ( obj_e6621be0_1f25_4311_9b56_a907057858df o )  ) )):named c22))
(assert (! (exists ((o Int)) (and (and (and ( type_f2cc20f5_280a_4fb2_884c_1cac90f76b50_Class3 ( obj_e6621be0_1f25_4311_9b56_a907057858df o )  )  ( type_f2cc20f5_280a_4fb2_884c_1cac90f76b50_Class25 ( obj_e6621be0_1f25_4311_9b56_a907057858df o )  ) ) ( type_f2cc20f5_280a_4fb2_884c_1cac90f76b50_Class24 ( obj_e6621be0_1f25_4311_9b56_a907057858df o )  ) ) ( type_f2cc20f5_280a_4fb2_884c_1cac90f76b50_Class39 ( obj_e6621be0_1f25_4311_9b56_a907057858df o )  ) )):named c23))
(assert (! (exists ((o Int)) (and ( type_f2cc20f5_280a_4fb2_884c_1cac90f76b50_Class30 ( obj_e6621be0_1f25_4311_9b56_a907057858df o )  )  ( type_f2cc20f5_280a_4fb2_884c_1cac90f76b50_Class39 ( obj_e6621be0_1f25_4311_9b56_a907057858df o )  ) )):named c24))
(assert (! (exists ((o Int)) (and (and (and (and (and ( type_f2cc20f5_280a_4fb2_884c_1cac90f76b50_Class31 ( obj_e6621be0_1f25_4311_9b56_a907057858df o )  )  ( type_f2cc20f5_280a_4fb2_884c_1cac90f76b50_Class45 ( obj_e6621be0_1f25_4311_9b56_a907057858df o )  ) ) ( type_f2cc20f5_280a_4fb2_884c_1cac90f76b50_Class12 ( obj_e6621be0_1f25_4311_9b56_a907057858df o )  ) ) ( type_f2cc20f5_280a_4fb2_884c_1cac90f76b50_Class33 ( obj_e6621be0_1f25_4311_9b56_a907057858df o )  ) ) ( type_f2cc20f5_280a_4fb2_884c_1cac90f76b50_Class22 ( obj_e6621be0_1f25_4311_9b56_a907057858df o )  ) ) ( type_f2cc20f5_280a_4fb2_884c_1cac90f76b50_Class39 ( obj_e6621be0_1f25_4311_9b56_a907057858df o )  ) )):named c25))
(assert (! (exists ((o Int)) ( type_f2cc20f5_280a_4fb2_884c_1cac90f76b50_Class32 ( obj_e6621be0_1f25_4311_9b56_a907057858df o )  ) ):named c26))
(assert (! (exists ((o Int)) (and (and ( type_f2cc20f5_280a_4fb2_884c_1cac90f76b50_Class33 ( obj_e6621be0_1f25_4311_9b56_a907057858df o )  )  ( type_f2cc20f5_280a_4fb2_884c_1cac90f76b50_Class22 ( obj_e6621be0_1f25_4311_9b56_a907057858df o )  ) ) ( type_f2cc20f5_280a_4fb2_884c_1cac90f76b50_Class39 ( obj_e6621be0_1f25_4311_9b56_a907057858df o )  ) )):named c27))
(assert (! (exists ((o Int)) (and (and (and ( type_f2cc20f5_280a_4fb2_884c_1cac90f76b50_Class34 ( obj_e6621be0_1f25_4311_9b56_a907057858df o )  )  ( type_f2cc20f5_280a_4fb2_884c_1cac90f76b50_Class25 ( obj_e6621be0_1f25_4311_9b56_a907057858df o )  ) ) ( type_f2cc20f5_280a_4fb2_884c_1cac90f76b50_Class24 ( obj_e6621be0_1f25_4311_9b56_a907057858df o )  ) ) ( type_f2cc20f5_280a_4fb2_884c_1cac90f76b50_Class39 ( obj_e6621be0_1f25_4311_9b56_a907057858df o )  ) )):named c28))
(assert (! (exists ((o Int)) (and (and ( type_f2cc20f5_280a_4fb2_884c_1cac90f76b50_Class35 ( obj_e6621be0_1f25_4311_9b56_a907057858df o )  )  ( type_f2cc20f5_280a_4fb2_884c_1cac90f76b50_Class39 ( obj_e6621be0_1f25_4311_9b56_a907057858df o )  ) ) ( type_f2cc20f5_280a_4fb2_884c_1cac90f76b50_Class30 ( obj_e6621be0_1f25_4311_9b56_a907057858df o )  ) )):named c29))
(assert (! (exists ((o Int)) ( type_f2cc20f5_280a_4fb2_884c_1cac90f76b50_Class36 ( obj_e6621be0_1f25_4311_9b56_a907057858df o )  ) ):named c30))
(assert (! (exists ((o Int)) ( type_f2cc20f5_280a_4fb2_884c_1cac90f76b50_Class37 ( obj_e6621be0_1f25_4311_9b56_a907057858df o )  ) ):named c31))
(assert (! (exists ((o Int)) ( type_f2cc20f5_280a_4fb2_884c_1cac90f76b50_Class38 ( obj_e6621be0_1f25_4311_9b56_a907057858df o )  ) ):named c32))
(assert (! (exists ((o Int)) ( type_f2cc20f5_280a_4fb2_884c_1cac90f76b50_Class39 ( obj_e6621be0_1f25_4311_9b56_a907057858df o )  ) ):named c33))
(assert (! (exists ((o Int)) ( type_f2cc20f5_280a_4fb2_884c_1cac90f76b50_Class4 ( obj_e6621be0_1f25_4311_9b56_a907057858df o )  ) ):named c34))
(assert (! (exists ((o Int)) (and (and (and (and (and (and (and (and (and ( type_f2cc20f5_280a_4fb2_884c_1cac90f76b50_Class40 ( obj_e6621be0_1f25_4311_9b56_a907057858df o )  )  ( type_f2cc20f5_280a_4fb2_884c_1cac90f76b50_Class45 ( obj_e6621be0_1f25_4311_9b56_a907057858df o )  ) ) ( type_f2cc20f5_280a_4fb2_884c_1cac90f76b50_Class12 ( obj_e6621be0_1f25_4311_9b56_a907057858df o )  ) ) ( type_f2cc20f5_280a_4fb2_884c_1cac90f76b50_Class55 ( obj_e6621be0_1f25_4311_9b56_a907057858df o )  ) ) ( type_f2cc20f5_280a_4fb2_884c_1cac90f76b50_Class33 ( obj_e6621be0_1f25_4311_9b56_a907057858df o )  ) ) ( type_f2cc20f5_280a_4fb2_884c_1cac90f76b50_Class22 ( obj_e6621be0_1f25_4311_9b56_a907057858df o )  ) ) ( type_f2cc20f5_280a_4fb2_884c_1cac90f76b50_Class29 ( obj_e6621be0_1f25_4311_9b56_a907057858df o )  ) ) ( type_f2cc20f5_280a_4fb2_884c_1cac90f76b50_Class39 ( obj_e6621be0_1f25_4311_9b56_a907057858df o )  ) ) ( type_f2cc20f5_280a_4fb2_884c_1cac90f76b50_Class50 ( obj_e6621be0_1f25_4311_9b56_a907057858df o )  ) ) ( type_f2cc20f5_280a_4fb2_884c_1cac90f76b50_Class41 ( obj_e6621be0_1f25_4311_9b56_a907057858df o )  ) )):named c35))
(assert (! (exists ((o Int)) (and (and (and (and (and ( type_f2cc20f5_280a_4fb2_884c_1cac90f76b50_Class41 ( obj_e6621be0_1f25_4311_9b56_a907057858df o )  )  ( type_f2cc20f5_280a_4fb2_884c_1cac90f76b50_Class45 ( obj_e6621be0_1f25_4311_9b56_a907057858df o )  ) ) ( type_f2cc20f5_280a_4fb2_884c_1cac90f76b50_Class12 ( obj_e6621be0_1f25_4311_9b56_a907057858df o )  ) ) ( type_f2cc20f5_280a_4fb2_884c_1cac90f76b50_Class33 ( obj_e6621be0_1f25_4311_9b56_a907057858df o )  ) ) ( type_f2cc20f5_280a_4fb2_884c_1cac90f76b50_Class22 ( obj_e6621be0_1f25_4311_9b56_a907057858df o )  ) ) ( type_f2cc20f5_280a_4fb2_884c_1cac90f76b50_Class39 ( obj_e6621be0_1f25_4311_9b56_a907057858df o )  ) )):named c36))
(assert (! (exists ((o Int)) (and ( type_f2cc20f5_280a_4fb2_884c_1cac90f76b50_Class42 ( obj_e6621be0_1f25_4311_9b56_a907057858df o )  )  ( type_f2cc20f5_280a_4fb2_884c_1cac90f76b50_Class39 ( obj_e6621be0_1f25_4311_9b56_a907057858df o )  ) )):named c37))
(assert (! (exists ((o Int)) ( type_f2cc20f5_280a_4fb2_884c_1cac90f76b50_Class43 ( obj_e6621be0_1f25_4311_9b56_a907057858df o )  ) ):named c38))
(assert (! (exists ((o Int)) (and (and (and (and (and (and (and ( type_f2cc20f5_280a_4fb2_884c_1cac90f76b50_Class44 ( obj_e6621be0_1f25_4311_9b56_a907057858df o )  )  ( type_f2cc20f5_280a_4fb2_884c_1cac90f76b50_Class45 ( obj_e6621be0_1f25_4311_9b56_a907057858df o )  ) ) ( type_f2cc20f5_280a_4fb2_884c_1cac90f76b50_Class12 ( obj_e6621be0_1f25_4311_9b56_a907057858df o )  ) ) ( type_f2cc20f5_280a_4fb2_884c_1cac90f76b50_Class33 ( obj_e6621be0_1f25_4311_9b56_a907057858df o )  ) ) ( type_f2cc20f5_280a_4fb2_884c_1cac90f76b50_Class22 ( obj_e6621be0_1f25_4311_9b56_a907057858df o )  ) ) ( type_f2cc20f5_280a_4fb2_884c_1cac90f76b50_Class29 ( obj_e6621be0_1f25_4311_9b56_a907057858df o )  ) ) ( type_f2cc20f5_280a_4fb2_884c_1cac90f76b50_Class39 ( obj_e6621be0_1f25_4311_9b56_a907057858df o )  ) ) ( type_f2cc20f5_280a_4fb2_884c_1cac90f76b50_Class41 ( obj_e6621be0_1f25_4311_9b56_a907057858df o )  ) )):named c39))
(assert (! (exists ((o Int)) (and (and (and (and ( type_f2cc20f5_280a_4fb2_884c_1cac90f76b50_Class45 ( obj_e6621be0_1f25_4311_9b56_a907057858df o )  )  ( type_f2cc20f5_280a_4fb2_884c_1cac90f76b50_Class12 ( obj_e6621be0_1f25_4311_9b56_a907057858df o )  ) ) ( type_f2cc20f5_280a_4fb2_884c_1cac90f76b50_Class33 ( obj_e6621be0_1f25_4311_9b56_a907057858df o )  ) ) ( type_f2cc20f5_280a_4fb2_884c_1cac90f76b50_Class22 ( obj_e6621be0_1f25_4311_9b56_a907057858df o )  ) ) ( type_f2cc20f5_280a_4fb2_884c_1cac90f76b50_Class39 ( obj_e6621be0_1f25_4311_9b56_a907057858df o )  ) )):named c40))
(assert (! (exists ((o Int)) (and (and ( type_f2cc20f5_280a_4fb2_884c_1cac90f76b50_Class46 ( obj_e6621be0_1f25_4311_9b56_a907057858df o )  )  ( type_f2cc20f5_280a_4fb2_884c_1cac90f76b50_Class39 ( obj_e6621be0_1f25_4311_9b56_a907057858df o )  ) ) ( type_f2cc20f5_280a_4fb2_884c_1cac90f76b50_Class5 ( obj_e6621be0_1f25_4311_9b56_a907057858df o )  ) )):named c41))
(assert (! (exists ((o Int)) ( type_f2cc20f5_280a_4fb2_884c_1cac90f76b50_Class47 ( obj_e6621be0_1f25_4311_9b56_a907057858df o )  ) ):named c42))
(assert (! (exists ((o Int)) (and (and (and (and (and (and (and (and (and ( type_f2cc20f5_280a_4fb2_884c_1cac90f76b50_Class48 ( obj_e6621be0_1f25_4311_9b56_a907057858df o )  )  ( type_f2cc20f5_280a_4fb2_884c_1cac90f76b50_Class45 ( obj_e6621be0_1f25_4311_9b56_a907057858df o )  ) ) ( type_f2cc20f5_280a_4fb2_884c_1cac90f76b50_Class12 ( obj_e6621be0_1f25_4311_9b56_a907057858df o )  ) ) ( type_f2cc20f5_280a_4fb2_884c_1cac90f76b50_Class55 ( obj_e6621be0_1f25_4311_9b56_a907057858df o )  ) ) ( type_f2cc20f5_280a_4fb2_884c_1cac90f76b50_Class33 ( obj_e6621be0_1f25_4311_9b56_a907057858df o )  ) ) ( type_f2cc20f5_280a_4fb2_884c_1cac90f76b50_Class22 ( obj_e6621be0_1f25_4311_9b56_a907057858df o )  ) ) ( type_f2cc20f5_280a_4fb2_884c_1cac90f76b50_Class29 ( obj_e6621be0_1f25_4311_9b56_a907057858df o )  ) ) ( type_f2cc20f5_280a_4fb2_884c_1cac90f76b50_Class39 ( obj_e6621be0_1f25_4311_9b56_a907057858df o )  ) ) ( type_f2cc20f5_280a_4fb2_884c_1cac90f76b50_Class50 ( obj_e6621be0_1f25_4311_9b56_a907057858df o )  ) ) ( type_f2cc20f5_280a_4fb2_884c_1cac90f76b50_Class41 ( obj_e6621be0_1f25_4311_9b56_a907057858df o )  ) )):named c43))
(assert (! (exists ((o Int)) (and (and (and (and (and (and (and (and (and ( type_f2cc20f5_280a_4fb2_884c_1cac90f76b50_Class49 ( obj_e6621be0_1f25_4311_9b56_a907057858df o )  )  ( type_f2cc20f5_280a_4fb2_884c_1cac90f76b50_Class45 ( obj_e6621be0_1f25_4311_9b56_a907057858df o )  ) ) ( type_f2cc20f5_280a_4fb2_884c_1cac90f76b50_Class12 ( obj_e6621be0_1f25_4311_9b56_a907057858df o )  ) ) ( type_f2cc20f5_280a_4fb2_884c_1cac90f76b50_Class55 ( obj_e6621be0_1f25_4311_9b56_a907057858df o )  ) ) ( type_f2cc20f5_280a_4fb2_884c_1cac90f76b50_Class33 ( obj_e6621be0_1f25_4311_9b56_a907057858df o )  ) ) ( type_f2cc20f5_280a_4fb2_884c_1cac90f76b50_Class22 ( obj_e6621be0_1f25_4311_9b56_a907057858df o )  ) ) ( type_f2cc20f5_280a_4fb2_884c_1cac90f76b50_Class29 ( obj_e6621be0_1f25_4311_9b56_a907057858df o )  ) ) ( type_f2cc20f5_280a_4fb2_884c_1cac90f76b50_Class39 ( obj_e6621be0_1f25_4311_9b56_a907057858df o )  ) ) ( type_f2cc20f5_280a_4fb2_884c_1cac90f76b50_Class50 ( obj_e6621be0_1f25_4311_9b56_a907057858df o )  ) ) ( type_f2cc20f5_280a_4fb2_884c_1cac90f76b50_Class41 ( obj_e6621be0_1f25_4311_9b56_a907057858df o )  ) )):named c44))
(assert (! (exists ((o Int)) (and ( type_f2cc20f5_280a_4fb2_884c_1cac90f76b50_Class5 ( obj_e6621be0_1f25_4311_9b56_a907057858df o )  )  ( type_f2cc20f5_280a_4fb2_884c_1cac90f76b50_Class39 ( obj_e6621be0_1f25_4311_9b56_a907057858df o )  ) )):named c45))
(assert (! (exists ((o Int)) (and (and (and (and (and (and (and (and ( type_f2cc20f5_280a_4fb2_884c_1cac90f76b50_Class50 ( obj_e6621be0_1f25_4311_9b56_a907057858df o )  )  ( type_f2cc20f5_280a_4fb2_884c_1cac90f76b50_Class45 ( obj_e6621be0_1f25_4311_9b56_a907057858df o )  ) ) ( type_f2cc20f5_280a_4fb2_884c_1cac90f76b50_Class12 ( obj_e6621be0_1f25_4311_9b56_a907057858df o )  ) ) ( type_f2cc20f5_280a_4fb2_884c_1cac90f76b50_Class55 ( obj_e6621be0_1f25_4311_9b56_a907057858df o )  ) ) ( type_f2cc20f5_280a_4fb2_884c_1cac90f76b50_Class33 ( obj_e6621be0_1f25_4311_9b56_a907057858df o )  ) ) ( type_f2cc20f5_280a_4fb2_884c_1cac90f76b50_Class22 ( obj_e6621be0_1f25_4311_9b56_a907057858df o )  ) ) ( type_f2cc20f5_280a_4fb2_884c_1cac90f76b50_Class29 ( obj_e6621be0_1f25_4311_9b56_a907057858df o )  ) ) ( type_f2cc20f5_280a_4fb2_884c_1cac90f76b50_Class39 ( obj_e6621be0_1f25_4311_9b56_a907057858df o )  ) ) ( type_f2cc20f5_280a_4fb2_884c_1cac90f76b50_Class41 ( obj_e6621be0_1f25_4311_9b56_a907057858df o )  ) )):named c46))
(assert (! (exists ((o Int)) (and (and (and (and (and (and ( type_f2cc20f5_280a_4fb2_884c_1cac90f76b50_Class51 ( obj_e6621be0_1f25_4311_9b56_a907057858df o )  )  ( type_f2cc20f5_280a_4fb2_884c_1cac90f76b50_Class45 ( obj_e6621be0_1f25_4311_9b56_a907057858df o )  ) ) ( type_f2cc20f5_280a_4fb2_884c_1cac90f76b50_Class12 ( obj_e6621be0_1f25_4311_9b56_a907057858df o )  ) ) ( type_f2cc20f5_280a_4fb2_884c_1cac90f76b50_Class33 ( obj_e6621be0_1f25_4311_9b56_a907057858df o )  ) ) ( type_f2cc20f5_280a_4fb2_884c_1cac90f76b50_Class22 ( obj_e6621be0_1f25_4311_9b56_a907057858df o )  ) ) ( type_f2cc20f5_280a_4fb2_884c_1cac90f76b50_Class16 ( obj_e6621be0_1f25_4311_9b56_a907057858df o )  ) ) ( type_f2cc20f5_280a_4fb2_884c_1cac90f76b50_Class39 ( obj_e6621be0_1f25_4311_9b56_a907057858df o )  ) )):named c47))
(assert (! (exists ((o Int)) (and (and (and (and (and ( type_f2cc20f5_280a_4fb2_884c_1cac90f76b50_Class52 ( obj_e6621be0_1f25_4311_9b56_a907057858df o )  )  ( type_f2cc20f5_280a_4fb2_884c_1cac90f76b50_Class45 ( obj_e6621be0_1f25_4311_9b56_a907057858df o )  ) ) ( type_f2cc20f5_280a_4fb2_884c_1cac90f76b50_Class12 ( obj_e6621be0_1f25_4311_9b56_a907057858df o )  ) ) ( type_f2cc20f5_280a_4fb2_884c_1cac90f76b50_Class33 ( obj_e6621be0_1f25_4311_9b56_a907057858df o )  ) ) ( type_f2cc20f5_280a_4fb2_884c_1cac90f76b50_Class22 ( obj_e6621be0_1f25_4311_9b56_a907057858df o )  ) ) ( type_f2cc20f5_280a_4fb2_884c_1cac90f76b50_Class39 ( obj_e6621be0_1f25_4311_9b56_a907057858df o )  ) )):named c48))
(assert (! (exists ((o Int)) ( type_f2cc20f5_280a_4fb2_884c_1cac90f76b50_Class53 ( obj_e6621be0_1f25_4311_9b56_a907057858df o )  ) ):named c49))
(assert (! (exists ((o Int)) ( type_f2cc20f5_280a_4fb2_884c_1cac90f76b50_Class54 ( obj_e6621be0_1f25_4311_9b56_a907057858df o )  ) ):named c50))
(assert (! (exists ((o Int)) (and (and (and (and (and (and (and ( type_f2cc20f5_280a_4fb2_884c_1cac90f76b50_Class55 ( obj_e6621be0_1f25_4311_9b56_a907057858df o )  )  ( type_f2cc20f5_280a_4fb2_884c_1cac90f76b50_Class45 ( obj_e6621be0_1f25_4311_9b56_a907057858df o )  ) ) ( type_f2cc20f5_280a_4fb2_884c_1cac90f76b50_Class12 ( obj_e6621be0_1f25_4311_9b56_a907057858df o )  ) ) ( type_f2cc20f5_280a_4fb2_884c_1cac90f76b50_Class33 ( obj_e6621be0_1f25_4311_9b56_a907057858df o )  ) ) ( type_f2cc20f5_280a_4fb2_884c_1cac90f76b50_Class22 ( obj_e6621be0_1f25_4311_9b56_a907057858df o )  ) ) ( type_f2cc20f5_280a_4fb2_884c_1cac90f76b50_Class29 ( obj_e6621be0_1f25_4311_9b56_a907057858df o )  ) ) ( type_f2cc20f5_280a_4fb2_884c_1cac90f76b50_Class39 ( obj_e6621be0_1f25_4311_9b56_a907057858df o )  ) ) ( type_f2cc20f5_280a_4fb2_884c_1cac90f76b50_Class41 ( obj_e6621be0_1f25_4311_9b56_a907057858df o )  ) )):named c51))
(assert (! (exists ((o Int)) ( type_f2cc20f5_280a_4fb2_884c_1cac90f76b50_Class6 ( obj_e6621be0_1f25_4311_9b56_a907057858df o )  ) ):named c52))
(assert (! (exists ((o Int)) (and (and (and (and (and (and (and (and (and ( type_f2cc20f5_280a_4fb2_884c_1cac90f76b50_Class7 ( obj_e6621be0_1f25_4311_9b56_a907057858df o )  )  ( type_f2cc20f5_280a_4fb2_884c_1cac90f76b50_Class45 ( obj_e6621be0_1f25_4311_9b56_a907057858df o )  ) ) ( type_f2cc20f5_280a_4fb2_884c_1cac90f76b50_Class12 ( obj_e6621be0_1f25_4311_9b56_a907057858df o )  ) ) ( type_f2cc20f5_280a_4fb2_884c_1cac90f76b50_Class55 ( obj_e6621be0_1f25_4311_9b56_a907057858df o )  ) ) ( type_f2cc20f5_280a_4fb2_884c_1cac90f76b50_Class33 ( obj_e6621be0_1f25_4311_9b56_a907057858df o )  ) ) ( type_f2cc20f5_280a_4fb2_884c_1cac90f76b50_Class22 ( obj_e6621be0_1f25_4311_9b56_a907057858df o )  ) ) ( type_f2cc20f5_280a_4fb2_884c_1cac90f76b50_Class29 ( obj_e6621be0_1f25_4311_9b56_a907057858df o )  ) ) ( type_f2cc20f5_280a_4fb2_884c_1cac90f76b50_Class39 ( obj_e6621be0_1f25_4311_9b56_a907057858df o )  ) ) ( type_f2cc20f5_280a_4fb2_884c_1cac90f76b50_Class50 ( obj_e6621be0_1f25_4311_9b56_a907057858df o )  ) ) ( type_f2cc20f5_280a_4fb2_884c_1cac90f76b50_Class41 ( obj_e6621be0_1f25_4311_9b56_a907057858df o )  ) )):named c53))
(assert (! (exists ((o Int)) (and ( type_f2cc20f5_280a_4fb2_884c_1cac90f76b50_Class8 ( obj_e6621be0_1f25_4311_9b56_a907057858df o )  )  ( type_f2cc20f5_280a_4fb2_884c_1cac90f76b50_Class39 ( obj_e6621be0_1f25_4311_9b56_a907057858df o )  ) )):named c54))
(assert (! (exists ((o Int)) ( type_f2cc20f5_280a_4fb2_884c_1cac90f76b50_Class9 ( obj_e6621be0_1f25_4311_9b56_a907057858df o )  ) ):named c55))

 ;end of formula 